
Log started (V11.0.0) Fri May 16 20:55:28 2008

Tried aggregator 1 time.
Reduced MIP has 250 rows, 10001 columns, and 20050 nonzeros.
Presolve time =    0.08 sec.
Clique table members: 200.
MIP emphasis: balance optimality and feasibility.
MIP search method: dynamic search.
Parallel mode: none, using 1 thread.
Root relaxation solution time =    0.48 sec.

        Nodes                                         Cuts/
   Node  Left     Objective  IInf  Best Integer     Best Node    ItCnt     Gap

*     0+    0                        21909.0000      400.2800      618   98.17%
*     0+    0                          402.0000      400.2800      618    0.43%
      0     0      401.0000    64      402.0000      Fract: 5      629    0.25%
      0     0      401.0000    58      402.0000     Covers: 1      632    0.25%
      0     0      401.0000    75      402.0000     Covers: 1      656    0.25%
      0     0      401.0000    91      402.0000       Cuts: 8      704    0.25%
      0     2      401.0000    91      402.0000      401.0000      704    0.25%
    100    26      401.0000    63      402.0000      401.0000    33776    0.25%
    200    52    infeasible            402.0000      401.0000    60586    0.25%
    300    20    infeasible            402.0000      401.0000    68280    0.25%
    400    44      401.0000    85      402.0000      401.0000   122509    0.25%
    500    62      401.0000    80      402.0000      401.0000   155722    0.25%
    600    88    infeasible            402.0000      401.0000   163560    0.25%
    700   140      401.0000    85      402.0000      401.0000   171009    0.25%
    800   202    infeasible            402.0000      401.0000   182473    0.25%
    900   282      401.0000    75      402.0000      401.0000   190659    0.25%
   1000   256    infeasible            402.0000      401.0000   232554    0.25%
Elapsed time =  73.50 sec. (tree size =  1.77 MB, solutions = 2)
   1100   250      401.0000    48      402.0000      401.0000   263008    0.25%
   1200   302      401.0000    87      402.0000      401.0000   274874    0.25%
   1300   354    infeasible            402.0000      401.0000   286321    0.25%
   1400   286    infeasible            402.0000      401.0000   331420    0.25%
   1500   352      401.0000    85      402.0000      401.0000   344278    0.25%
   1600   398      401.0000    70      402.0000      401.0000   358251    0.25%
   1700   472      401.0000    40      402.0000      401.0000   366871    0.25%
   1800   522    infeasible            402.0000      401.0000   379503    0.25%
   1900   532    infeasible            402.0000      401.0000   404698    0.25%
   2000   560      401.0000    99      402.0000      401.0000   422925    0.25%
Elapsed time = 124.31 sec. (tree size =  3.91 MB, solutions = 2)
   2100   642      401.0000    84      402.0000      401.0000   430165    0.25%
   2200   728      401.0000    80      402.0000      401.0000   436060    0.25%
   2300   806      401.0000    74      402.0000      401.0000   445313    0.25%
   2400   892      401.0000   100      402.0000      401.0000   450641    0.25%
   2500   974      401.0000    46      402.0000      401.0000   458327    0.25%
   2600  1048      401.0000    99      402.0000      401.0000   465925    0.25%
   2700  1106      401.0000    86      402.0000      401.0000   477297    0.25%
   2800  1184      401.0000    43      402.0000      401.0000   485401    0.25%
   2900  1272      401.0000   110      402.0000      401.0000   490812    0.25%
   3000  1336      401.0000    55      402.0000      401.0000   501209    0.25%
Elapsed time = 157.23 sec. (tree size =  9.91 MB, solutions = 2)
   3100  1414    infeasible            402.0000      401.0000   510280    0.25%
   3200  1476      401.0000    96      402.0000      401.0000   520521    0.25%
   3300  1512      401.0000    44      402.0000      401.0000   540634    0.25%
   3400  1592      401.0000   102      402.0000      401.0000   549208    0.25%
   3500  1642      401.0000    78      402.0000      401.0000   563277    0.25%
   3600  1690      401.0000    56      402.0000      401.0000   577288    0.25%
   3700  1776      401.0000    76      402.0000      401.0000   585759    0.25%
   3800  1850      401.0000    81      402.0000      401.0000   594961    0.25%
   3900  1902      401.0000    96      402.0000      401.0000   606246    0.25%
   4000  1978      401.0000    82      402.0000      401.0000   614840    0.25%
Elapsed time = 199.97 sec. (tree size = 15.15 MB, solutions = 2)
   4100  2034    infeasible            402.0000      401.0000   624944    0.25%
   4200  2046      401.0000    80      402.0000      401.0000   647678    0.25%
   4300  2092    infeasible            402.0000      401.0000   659561    0.25%
   4400  2092    infeasible            402.0000      401.0000   682437    0.25%
   4500  2029    infeasible            402.0000      401.0000   719650    0.25%
   4600  1937    infeasible            402.0000      401.0000   773000    0.25%
   4700  1837    infeasible            402.0000      401.0000   825709    0.25%
   4800  1741    infeasible            402.0000      401.0000   876861    0.25%
   4900  1641    infeasible            402.0000      401.0000   922404    0.25%
   5000  1541    infeasible            402.0000      401.0000   968366    0.25%
Elapsed time = 296.00 sec. (tree size = 12.05 MB, solutions = 2)
   5100  1441    infeasible            402.0000      401.0000  1018085    0.25%
   5200  1341    infeasible            402.0000      401.0000  1070103    0.25%
   5300  1241    infeasible            402.0000      401.0000  1112814    0.25%
   5400  1141    infeasible            402.0000      401.0000  1152379    0.25%
   5500  1041    infeasible            402.0000      401.0000  1187211    0.25%
   5600   941    infeasible            402.0000      401.0000  1228014    0.25%
   5700   841    infeasible            402.0000      401.0000  1266921    0.25%
   5800   741    infeasible            402.0000      401.0000  1305768    0.25%
   5900   641    infeasible            402.0000      401.0000  1338989    0.25%
   6000   541    infeasible            402.0000      401.0000  1373523    0.25%
Elapsed time = 404.94 sec. (tree size =  4.33 MB, solutions = 2)
   6100   441    infeasible            402.0000      401.0000  1409226    0.25%
   6200   341    infeasible            402.0000      401.0000  1446547    0.25%
   6300   241    infeasible            402.0000      401.0000  1481230    0.25%
   6400   141    infeasible            402.0000      401.0000  1512095    0.25%
   6500    41    infeasible            402.0000      401.0000  1548780    0.25%

Cover cuts applied:  253
Gomory fractional cuts applied:  3

Solution pool: 2 solutions saved.

MIP - Integer optimal solution:  Objective = 4.0200000000e+002
Solution time =  459.83 sec.  Iterations = 1560330  Nodes = 6542


Incumbent solution
Variable Name           Solution Value
Cmax                        402.000000
X_1_21                        1.000000
X_2_45                        1.000000
X_3_37                        1.000000
X_4_29                        1.000000
X_5_38                        1.000000
X_6_7                         1.000000
X_7_37                        1.000000
X_8_25                        1.000000
X_9_4                         1.000000
X_10_32                       1.000000
X_11_27                       1.000000
X_12_40                       1.000000
X_13_48                       1.000000
X_14_1                        1.000000
X_15_5                        1.000000
X_16_18                       1.000000
X_17_17                       1.000000
X_18_10                       1.000000
X_19_9                        1.000000
X_20_48                       1.000000
X_21_32                       1.000000
X_22_40                       1.000000
X_23_32                       1.000000
X_24_12                       1.000000
X_25_6                        1.000000
X_26_47                       1.000000
X_27_13                       1.000000
X_28_2                        1.000000
X_29_36                       1.000000
X_30_35                       1.000000
X_31_43                       1.000000
X_32_1                        1.000000
X_33_45                       1.000000
X_34_6                        1.000000
X_35_38                       1.000000
X_36_9                        1.000000
X_37_42                       1.000000
X_38_5                        1.000000
X_39_8                        1.000000
X_40_41                       1.000000
X_41_37                       1.000000
X_42_16                       1.000000
X_43_14                       1.000000
X_44_8                        1.000000
X_45_22                       1.000000
X_46_10                       1.000000
X_47_35                       1.000000
X_48_39                       1.000000
X_49_34                       1.000000
X_50_30                       1.000000
X_51_25                       1.000000
X_52_44                       1.000000
X_53_13                       1.000000
X_54_22                       1.000000
X_55_44                       1.000000
X_56_31                       1.000000
X_57_47                       1.000000
X_58_4                        1.000000
X_59_33                       1.000000
X_60_38                       1.000000
X_61_20                       1.000000
X_62_19                       1.000000
X_63_13                       1.000000
X_64_28                       1.000000
X_65_40                       1.000000
X_66_27                       1.000000
X_67_49                       1.000000
X_68_18                       1.000000
X_69_24                       1.000000
X_70_5                        1.000000
X_71_41                       1.000000
X_72_3                        1.000000
X_73_32                       1.000000
X_74_13                       1.000000
X_75_34                       1.000000
X_76_46                       1.000000
X_77_31                       1.000000
X_78_42                       1.000000
X_79_25                       1.000000
X_80_23                       1.000000
X_81_12                       1.000000
X_82_41                       1.000000
X_83_50                       1.000000
X_84_49                       1.000000
X_85_37                       1.000000
X_86_19                       1.000000
X_87_15                       1.000000
X_88_45                       1.000000
X_89_20                       1.000000
X_90_9                        1.000000
X_91_50                       1.000000
X_92_44                       1.000000
X_93_46                       1.000000
X_94_21                       1.000000
X_95_30                       1.000000
X_96_26                       1.000000
X_97_3                        1.000000
X_98_2                        1.000000
X_99_42                       1.000000
X_100_44                      1.000000
X_101_30                      1.000000
X_102_39                      1.000000
X_103_28                      1.000000
X_104_28                      1.000000
X_105_15                      1.000000
X_106_36                      1.000000
X_107_11                      1.000000
X_108_34                      1.000000
X_109_43                      1.000000
X_110_26                      1.000000
X_111_41                      1.000000
X_112_49                      1.000000
X_113_18                      1.000000
X_114_48                      1.000000
X_115_31                      1.000000
X_116_23                      1.000000
X_117_36                      1.000000
X_118_15                      1.000000
X_119_6                       1.000000
X_120_6                       1.000000
X_121_31                      1.000000
X_122_21                      1.000000
X_123_24                      1.000000
X_124_10                      1.000000
X_125_30                      1.000000
X_126_8                       1.000000
X_127_19                      1.000000
X_128_47                      1.000000
X_129_8                       1.000000
X_130_33                      1.000000
X_131_49                      1.000000
X_132_22                      1.000000
X_133_11                      1.000000
X_134_39                      1.000000
X_135_50                      1.000000
X_136_1                       1.000000
X_137_43                      1.000000
X_138_7                       1.000000
X_139_3                       1.000000
X_140_22                      1.000000
X_141_39                      1.000000
X_142_34                      1.000000
X_143_7                       1.000000
X_144_29                      1.000000
X_145_7                       1.000000
X_146_10                      1.000000
X_147_15                      1.000000
X_148_17                      1.000000
X_149_24                      1.000000
X_150_17                      1.000000
X_151_17                      1.000000
X_152_36                      1.000000
X_153_14                      1.000000
X_154_50                      1.000000
X_155_29                      1.000000
X_156_27                      1.000000
X_157_26                      1.000000
X_158_24                      1.000000
X_159_40                      1.000000
X_160_2                       1.000000
X_161_27                      1.000000
X_162_33                      1.000000
X_163_23                      1.000000
X_164_18                      1.000000
X_165_4                       1.000000
X_166_16                      1.000000
X_167_48                      1.000000
X_168_14                      1.000000
X_169_38                      1.000000
X_170_43                      1.000000
X_171_29                      1.000000
X_172_23                      1.000000
X_173_26                      1.000000
X_174_11                      1.000000
X_175_1                       1.000000
X_176_45                      1.000000
X_177_14                      1.000000
X_178_25                      1.000000
X_179_19                      1.000000
X_180_47                      1.000000
X_181_4                       1.000000
X_182_5                       1.000000
X_183_2                       1.000000
X_184_16                      1.000000
X_185_16                      1.000000
X_186_12                      1.000000
X_187_21                      1.000000
X_188_33                      1.000000
X_189_12                      1.000000
X_190_42                      1.000000
X_191_3                       1.000000
X_192_35                      1.000000
X_193_11                      1.000000
X_194_20                      1.000000
X_195_28                      1.000000
X_196_35                      1.000000
X_197_46                      1.000000
X_198_9                       1.000000
X_199_20                      1.000000
X_200_46                      1.000000
All other variables in the range 1-10001 are 0.
